Problem:    
Rows:       195
Columns:    69 (54 integer, 54 binary)
Non-zeros:  710
Status:     INTEGER OPTIMAL
Objective:  value = 27.971475 (MINimum)

   No.   Row name        Activity     Lower bound   Upper bound
------ ------------    ------------- ------------- -------------
     1 r.5                   1027.97             0               
     2 r.6                  -972.029      -990.417               
     3 r.7                   27.9715             0               
     4 r.8                   27.9715      -991.848               
     5 r.9                   27.9715             0               
     6 r.10                  25.4716      -992.058               
     7 r.11                  1027.97             0               
     8 r.12                 -974.528      -993.714               
     9 r.13                  27.9715             0               
    10 r.14                  25.4716      -992.408               
    11 r.15                  1027.97             0               
    12 r.16                 -980.815      -992.822               
    13 r.17                  27.9715             0               
    14 r.18                  12.0074      -995.616               
    15 r.19                  1027.97             0               
    16 r.20                 -988.134      -995.079               
    17 r.21                  1027.97             0               
    18 r.22                 -985.519      -992.464               
    19 r.23                  27.9715             0               
    20 r.24                  29.5208      -992.769               
    21 r.25                  1027.97             0               
    22 r.26                 -997.774      -997.774               
    23 r.27                  27.9715             0               
    24 r.28                 -982.097      -982.097               
    25 r.29                  27.9715             0               
    26 r.30                  27.9715      -992.373               
    27 r.31                  1027.97             0               
    28 r.32                 -972.029        -997.5               
    29 r.33                        1             1             = 
    30 r.34                        1             1             = 
    31 r.35                        1             1             = 
    32 r.36                        1             1             = 
    33 r.37                        1             1             = 
    34 r.38                        1             1             = 
    35 r.39                        1             1             = 
    36 r.40                     1001             2               
    37 r.41                    -1001         -1001               
    38 r.42                   1997.5      -992.058               
    39 r.43                     1001             2               
    40 r.44                    -1001         -1001               
    41 r.45                   1997.5      -993.714               
    42 r.46                     1001             2               
    43 r.47                    -1001         -1001               
    44 r.48                   1997.5      -992.408               
    45 r.49                     1001             2               
    46 r.50                    -1001         -1001               
    47 r.51                  1991.21      -992.822               
    48 r.52                     1001             2               
    49 r.53                    -1001         -1001               
    50 r.54                  1984.04      -995.616               
    51 r.55                     1001             2               
    52 r.56                    -1001         -1001               
    53 r.57                  1983.89      -995.079               
    54 r.58                        2             2               
    55 r.59                       -2         -1001               
    56 r.60                 -13.4907      -992.464               
    57 r.61                     1000             2               
    58 r.62                    -1000         -1001               
    59 r.63                  2001.55      -992.769               
    60 r.64                 -978.974      -990.417               
    61 r.65                  21.0265      -991.848               
    62 r.66                  13.4032      -990.417               
    63 r.67                   1013.4      -991.848               
    64 r.68                     1001             2               
    65 r.69                    -1001         -1001               
    66 r.70                     2000      -992.373               
    67 r.71                     1001             2               
    68 r.72                    -1001         -1001               
    69 r.73                     2000        -997.5               
    70 r.74                     1001             2               
    71 r.75                    -1001         -1001               
    72 r.76                   2002.5        9.5832               
    73 r.77                     1001             2               
    74 r.78                    -1001         -1001               
    75 r.79                   2002.5       8.15214               
    76 r.80                     1000             2               
    77 r.81                    -1000         -1001               
    78 r.82                     2000      -992.408               
    79 r.83                        2             2               
    80 r.84                       -2         -1001               
    81 r.85                  -6.2861      -992.822               
    82 r.86                     1000             2               
    83 r.87                    -1000         -1001               
    84 r.88                  1986.54      -995.616               
    85 r.89                        2             2               
    86 r.90                       -2         -1001               
    87 r.91                 -13.6058      -995.079               
    88 r.92                     1001             2               
    89 r.93                    -1001         -1001               
    90 r.94                  1989.01      -992.464               
    91 r.95                     1001             2               
    92 r.96                    -1001         -1001               
    93 r.97                  2004.05      -992.769               
    94 r.98                  18.5266      -992.058               
    95 r.99                 -981.473      -993.714               
    96 r.100                  1010.9      -992.058               
    97 r.101                 10.9033      -993.714               
    98 r.102                 2.49987      -992.373               
    99 r.103                  -997.5        -997.5               
   100 r.104                 2.49987      -992.373               
   101 r.105                  -997.5        -997.5               
   102 r.106                    1001             2               
   103 r.107                   -1001         -1001               
   104 r.108                  2002.5        9.5832               
   105 r.109                    1001             2               
   106 r.110                   -1001         -1001               
   107 r.111                 2008.79       8.15214               
   108 r.112                    1000             2               
   109 r.113                   -1000         -1001               
   110 r.114                    2000        7.9415               
   111 r.115                       2             2               
   112 r.116                      -2         -1001               
   113 r.117                  6.2861        6.2861               
   114 r.118                 13.4642      -992.408               
   115 r.119                -992.822      -992.822               
   116 r.120                 13.6058      -992.408               
   117 r.121                 -992.68      -992.822               
   118 r.122                    1001             2               
   119 r.123                   -1001         -1001               
   120 r.124                 1989.01      -992.464               
   121 r.125                    1001             2               
   122 r.126                   -1001         -1001               
   123 r.127                 2010.34      -992.769               
   124 r.128                 18.5266      -992.408               
   125 r.129                -987.759      -992.822               
   126 r.130                  1010.9      -992.408               
   127 r.131                 4.61725      -992.822               
   128 r.132                 2.49987      -992.373               
   129 r.133                  -997.5        -997.5               
   130 r.134                 8.78598      -992.373               
   131 r.135                -991.214        -997.5               
   132 r.136                    1001             2               
   133 r.137                   -1001         -1001               
   134 r.138                 2015.96        9.5832               
   135 r.139                    1001             2               
   136 r.140                   -1001         -1001               
   137 r.141                 2016.11       8.15214               
   138 r.142                    1000             2               
   139 r.143                   -1000         -1001               
   140 r.144                 2013.46        7.9415               
   141 r.145                       2             2               
   142 r.146                      -2         -1001               
   143 r.147                 13.6058        6.2861               
   144 r.148                    1001             2               
   145 r.149                   -1001         -1001               
   146 r.150                 2002.47      -992.464               
   147 r.151                    1001             2               
   148 r.152                   -1001         -1001               
   149 r.153                 2017.66      -992.769               
   150 r.154                 5.06244      -995.616               
   151 r.155                -995.079      -995.079               
   152 r.156                 997.439      -995.616               
   153 r.157                -2.70249      -995.079               
   154 r.158                  15.964      -992.373               
   155 r.159                -984.036        -997.5               
   156 r.160                 16.1057      -992.373               
   157 r.161                -983.894        -997.5               
   158 r.162                       2             2               
   159 r.163                      -2         -1001               
   160 r.164                  9.5832        9.5832               
   161 r.165                    1000             2               
   162 r.166                   -1000         -1001               
   163 r.167                  2002.5       8.15214               
   164 r.168                    1001             2               
   165 r.169                   -1001         -1001               
   166 r.170                 2007.08        7.9415               
   167 r.171                    1001             2               
   168 r.172                   -1001         -1001               
   169 r.173                    2000        6.2861               
   170 r.174                    1001             2               
   171 r.175                   -1001         -1001               
   172 r.176                 2007.08        7.5916               
   173 r.177                    1001             2               
   174 r.178                   -1001         -1001               
   175 r.179                 1993.71       7.17807               
   176 r.180                    1001             2               
   177 r.181                   -1001         -1001               
   178 r.182                 1993.62       4.38414               
   179 r.183                    1001             2               
   180 r.184                   -1001         -1001               
   181 r.185                 1986.39       4.92078               
   182 r.186                -992.464      -992.464               
   183 r.187                 22.5759      -992.769               
   184 r.188               -0.087467      -992.464               
   185 r.189                 1014.95      -992.769               
   186 r.190                  9.5832      -992.373               
   187 r.191                -990.417        -997.5               
   188 r.192                 2.49987      -992.373               
   189 r.193                  -997.5        -997.5               
   190 r.194                    1001             2               
   191 r.195                   -1001         -1001               
   192 r.196                    2000        9.5832               
   193 r.197                    1001             2               
   194 r.198                   -1001         -1001               
   195 r.199                    2000       8.15214               

   No. Column name       Activity     Lower bound   Upper bound
------ ------------    ------------- ------------- -------------
     1 tt                    27.9715             0               
     2 s_1_1        *              1             0             1 
     3 t_1_1                       0             0               
     4 s_2_1        *              0             0             1 
     5 t_2_1                       0             0               
     6 s_1_2        *              0             0             1 
     7 t_1_2                 2.49987             0               
     8 s_1_7        *              0             0             1 
     9 s_2_2        *              1             0             1 
    10 t_2_2                 2.49987             0               
    11 s_2_7        *              1             0             1 
    12 s_1_3        *              0             0             1 
    13 t_1_3                 2.49987             0               
    14 s_2_3        *              1             0             1 
    15 t_2_3                 8.78598             0               
    16 s_1_4        *              0             0             1 
    17 t_1_4                  15.964             0               
    18 s_2_4        *              1             0             1 
    19 t_2_4                 16.1057             0               
    20 s_1_5        *              1             0             1 
    21 t_1_5                  9.5832             0               
    22 s_2_5        *              0             0             1 
    23 t_2_5                 2.49987             0               
    24 s_1_6        *              1             0             1 
    25 t_1_6                 21.0265             0               
    26 s_2_6        *              0             0             1 
    27 t_2_6                  1013.4             0               
    28 t_1_7                       0             0               
    29 t_2_7                       0             0               
    30 r_1_1_2      *              1             0             1 
    31 u_1_1_2      *              0             0             1 
    32 r_2_1_2      *              1             0             1 
    33 u_2_1_2      *              0             0             1 
    34 r_1_1_3      *              1             0             1 
    35 u_1_1_3      *              0             0             1 
    36 r_2_1_3      *              1             0             1 
    37 u_2_1_3      *              0             0             1 
    38 r_1_1_4      *              1             0             1 
    39 u_1_1_4      *              0             0             1 
    40 r_2_1_4      *              1             0             1 
    41 u_2_1_4      *              0             0             1 
    42 r_1_1_5      *              0             0             1 
    43 u_1_1_5      *              0             0             1 
    44 r_2_1_5      *              1             0             1 
    45 u_2_1_5      *              0             0             1 
    46 r_1_1_7      *              1             0             1 
    47 u_1_1_7      *              0             0             1 
    48 r_2_1_7      *              1             0             1 
    49 u_2_1_7      *              0             0             1 
    50 r_1_2_3      *              1             0             1 
    51 u_1_2_3      *              0             0             1 
    52 r_2_2_3      *              0             0             1 
    53 u_2_2_3      *              0             0             1 
    54 r_1_2_4      *              1             0             1 
    55 u_1_2_4      *              0             0             1 
    56 r_2_2_4      *              0             0             1 
    57 u_2_2_4      *              0             0             1 
    58 r_1_2_5      *              1             0             1 
    59 u_1_2_5      *              0             0             1 
    60 r_2_2_5      *              1             0             1 
    61 u_2_2_5      *              0             0             1 
    62 r_1_3_5      *              1             0             1 
    63 u_1_3_5      *              0             0             1 
    64 r_2_3_5      *              1             0             1 
    65 u_2_3_5      *              0             0             1 
    66 r_1_4_5      *              1             0             1 
    67 u_1_4_5      *              0             0             1 
    68 r_2_4_5      *              1             0             1 
    69 u_2_4_5      *              0             0             1 

Integer feasibility conditions:

KKT.PE: max.abs.err = 1.14e-13 on row 16
        max.rel.err = 8.16e-17 on row 87
        High quality

KKT.PB: max.abs.err = 1.14e-13 on row 24
        max.rel.err = 2.44e-16 on row 113
        High quality

End of output
